1 -363 14 0
-1 -373 0
-8 -369 -275 1 0
48 -373 0
-373 0
1 0
-13 0
337 0
49 0
-349 0
-325 0
-61 0
-37 0
25 0
361 0
-9 -11 0
d -9 -231 -11 0
333 0
-345 0
-321 0
21 0
-33 0
-9 0
357 0
229 0
233 0
253 0
257 0
281 0
101 0
105 0
125 0
129 0
153 0
-369 0
-241 0
-217 0
-245 0
-221 0
-265 0
-269 0
-293 0
-113 0
-89 0
-117 0
-93 0
-137 0
-141 0
-165 0
45 0
149 0
73 0
309 0
313 0
-57 0
-161 0
-85 0
-297 0
-301 0
277 0
305 0
77 0
81 0
-289 0
-317 0
-65 0
-69 0
0
